HUN,8,6,610
1,9,4,28,5,17,0,1,3,2,2,2
3,19,5,4,2,24,0,6,1,28,4,5
3,5,5,19,1,14,2,4,0,15,4,7
4,13,0,8,1,26,3,21,2,28,5,28
5,29,1,4,3,1,2,1,4,17,0,9
5,30,0,14,1,8,3,22,2,20,4,27
2,30,3,18,0,25,1,5,4,1,5,18
0,18,5,3,3,30,1,26,2,13,4,11
